Route #1: 32 40 3 50 17 10 46
Route #2: 6 22 56
Route #3: 1 27 18 28 9 55 31
Route #4: 45 24 52 43 54
Route #5: 4 30 49 35 48 38 12
Route #6: 42 14 34 19 13 44 20
Route #7: 2 23 39 26 16 7
Route #8: 53 29 41 21 36 47 5
Route #9: 33 11 37 51 25 15 8
Cost 1602
Time 0.142212
